p cnf 231 1473
-1 -2 -3 52 0
-52 1 0
-52 2 0
-52 3 0
-1 -4 -5 53 0
-53 1 0
-53 4 0
-53 5 0
-1 -6 -7 54 0
-54 1 0
-54 6 0
-54 7 0
-8 -9 55 0
-55 8 0
-55 9 0
-1 -10 -11 56 0
-56 1 0
-56 10 0
-56 11 0
-2 -12 -3 -13 -14 -15 57 0
-57 2 0
-57 12 0
-57 3 0
-57 13 0
-57 14 0
-57 15 0
-2 -12 -16 -13 -4 -15 58 0
-58 2 0
-58 12 0
-58 16 0
-58 13 0
-58 4 0
-58 15 0
-2 -12 -17 -13 -6 -15 59 0
-59 2 0
-59 12 0
-59 17 0
-59 13 0
-59 6 0
-59 15 0
-2 -18 -8 -13 -19 -15 60 0
-60 2 0
-60 18 0
-60 8 0
-60 13 0
-60 19 0
-60 15 0
-2 -12 -10 -20 -13 -15 61 0
-61 2 0
-61 12 0
-61 10 0
-61 20 0
-61 13 0
-61 15 0
-12 -3 -21 -13 -5 -15 62 0
-62 12 0
-62 3 0
-62 21 0
-62 13 0
-62 5 0
-62 15 0
-12 -22 -13 -5 -4 -15 63 0
-63 12 0
-63 22 0
-63 13 0
-63 5 0
-63 4 0
-63 15 0
-12 -23 -13 -5 -6 -15 64 0
-64 12 0
-64 23 0
-64 13 0
-64 5 0
-64 6 0
-64 15 0
-24 -8 -13 -5 -19 -15 65 0
-65 24 0
-65 8 0
-65 13 0
-65 5 0
-65 19 0
-65 15 0
-12 -25 -10 -13 -5 -15 66 0
-66 12 0
-66 25 0
-66 10 0
-66 13 0
-66 5 0
-66 15 0
-12 -3 -7 -13 -26 -15 67 0
-67 12 0
-67 3 0
-67 7 0
-67 13 0
-67 26 0
-67 15 0
-12 -27 -7 -13 -4 -15 68 0
-68 12 0
-68 27 0
-68 7 0
-68 13 0
-68 4 0
-68 15 0
-12 -7 -28 -13 -6 -15 69 0
-69 12 0
-69 7 0
-69 28 0
-69 13 0
-69 6 0
-69 15 0
-7 -8 -13 -19 -29 -15 70 0
-70 7 0
-70 8 0
-70 13 0
-70 19 0
-70 29 0
-70 15 0
-12 -7 -10 -30 -13 -15 71 0
-71 12 0
-71 7 0
-71 10 0
-71 30 0
-71 13 0
-71 15 0
-12 -31 -3 -32 -13 -9 72 0
-72 12 0
-72 31 0
-72 3 0
-72 32 0
-72 13 0
-72 9 0
-12 -31 -33 -13 -4 -9 73 0
-73 12 0
-73 31 0
-73 33 0
-73 13 0
-73 4 0
-73 9 0
-12 -31 -13 -9 -34 -6 74 0
-74 12 0
-74 31 0
-74 13 0
-74 9 0
-74 34 0
-74 6 0
-35 -31 -8 -13 -19 -9 75 0
-75 35 0
-75 31 0
-75 8 0
-75 13 0
-75 19 0
-75 9 0
-36 -12 -31 -10 -13 -9 76 0
-76 36 0
-76 12 0
-76 31 0
-76 10 0
-76 13 0
-76 9 0
-12 -3 -37 -13 -11 -15 77 0
-77 12 0
-77 3 0
-77 37 0
-77 13 0
-77 11 0
-77 15 0
-12 -38 -13 -11 -4 -15 78 0
-78 12 0
-78 38 0
-78 13 0
-78 11 0
-78 4 0
-78 15 0
-12 -13 -11 -6 -15 -39 79 0
-79 12 0
-79 13 0
-79 11 0
-79 6 0
-79 15 0
-79 39 0
-40 -8 -13 -11 -19 -15 80 0
-80 40 0
-80 8 0
-80 13 0
-80 11 0
-80 19 0
-80 15 0
-12 -41 -10 -13 -11 -15 81 0
-81 12 0
-81 41 0
-81 10 0
-81 13 0
-81 11 0
-81 15 0
-2 -3 -14 -42 -43 82 0
-82 2 0
-82 3 0
-82 14 0
-82 42 0
-82 43 0
-2 -16 -4 -42 -43 83 0
-83 2 0
-83 16 0
-83 4 0
-83 42 0
-83 43 0
-2 -17 -6 -42 -43 84 0
-84 2 0
-84 17 0
-84 6 0
-84 42 0
-84 43 0
-2 -44 -18 -8 -42 -43 85 0
-85 2 0
-85 44 0
-85 18 0
-85 8 0
-85 42 0
-85 43 0
-2 -10 -20 -42 -43 86 0
-86 2 0
-86 10 0
-86 20 0
-86 42 0
-86 43 0
-3 -21 -5 -42 -43 87 0
-87 3 0
-87 21 0
-87 5 0
-87 42 0
-87 43 0
-22 -5 -4 -42 -43 88 0
-88 22 0
-88 5 0
-88 4 0
-88 42 0
-88 43 0
-23 -5 -6 -42 -43 89 0
-89 23 0
-89 5 0
-89 6 0
-89 42 0
-89 43 0
-44 -24 -8 -5 -42 -43 90 0
-90 44 0
-90 24 0
-90 8 0
-90 5 0
-90 42 0
-90 43 0
-25 -10 -5 -42 -43 91 0
-91 25 0
-91 10 0
-91 5 0
-91 42 0
-91 43 0
-3 -7 -26 -42 -43 92 0
-92 3 0
-92 7 0
-92 26 0
-92 42 0
-92 43 0
-27 -7 -4 -42 -43 93 0
-93 27 0
-93 7 0
-93 4 0
-93 42 0
-93 43 0
-7 -28 -6 -42 -43 94 0
-94 7 0
-94 28 0
-94 6 0
-94 42 0
-94 43 0
-44 -7 -8 -29 -42 -43 95 0
-95 44 0
-95 7 0
-95 8 0
-95 29 0
-95 42 0
-95 43 0
-7 -10 -30 -42 -43 96 0
-96 7 0
-96 10 0
-96 30 0
-96 42 0
-96 43 0
-44 -3 -32 -9 -42 -43 97 0
-97 44 0
-97 3 0
-97 32 0
-97 9 0
-97 42 0
-97 43 0
-44 -33 -4 -9 -42 -43 98 0
-98 44 0
-98 33 0
-98 4 0
-98 9 0
-98 42 0
-98 43 0
-44 -9 -34 -6 -42 -43 99 0
-99 44 0
-99 9 0
-99 34 0
-99 6 0
-99 42 0
-99 43 0
-35 -44 -8 -9 -43 100 0
-100 35 0
-100 44 0
-100 8 0
-100 9 0
-100 43 0
-36 -44 -10 -9 -42 -43 101 0
-101 36 0
-101 44 0
-101 10 0
-101 9 0
-101 42 0
-101 43 0
-3 -37 -11 -42 -43 102 0
-102 3 0
-102 37 0
-102 11 0
-102 42 0
-102 43 0
-38 -11 -4 -42 -43 103 0
-103 38 0
-103 11 0
-103 4 0
-103 42 0
-103 43 0
-11 -6 -42 -39 -43 104 0
-104 11 0
-104 6 0
-104 42 0
-104 39 0
-104 43 0
-40 -44 -8 -11 -42 -43 105 0
-105 40 0
-105 44 0
-105 8 0
-105 11 0
-105 42 0
-105 43 0
-41 -10 -11 -42 -43 106 0
-106 41 0
-106 10 0
-106 11 0
-106 42 0
-106 43 0
-2 -45 -46 -3 -47 -14 -48 107 0
-107 2 0
-107 45 0
-107 46 0
-107 3 0
-107 47 0
-107 14 0
-107 48 0
-2 -45 -46 -3 -47 -16 -21 -48 108 0
-108 2 0
-108 45 0
-108 46 0
-108 3 0
-108 47 0
-108 16 0
-108 21 0
-108 48 0
-2 -45 -46 -3 -47 -17 -48 -26 109 0
-109 2 0
-109 45 0
-109 46 0
-109 3 0
-109 47 0
-109 17 0
-109 48 0
-109 26 0
-2 -45 -18 -3 -47 -32 -49 -48 110 0
-110 2 0
-110 45 0
-110 18 0
-110 3 0
-110 47 0
-110 32 0
-110 49 0
-110 48 0
-2 -45 -46 -3 -37 -47 -20 -48 111 0
-111 2 0
-111 45 0
-111 46 0
-111 3 0
-111 37 0
-111 47 0
-111 20 0
-111 48 0
-2 -45 -46 -47 -16 -14 -48 -4 112 0
-112 2 0
-112 45 0
-112 46 0
-112 47 0
-112 16 0
-112 14 0
-112 48 0
-112 4 0
-2 -45 -46 -22 -47 -16 -48 -4 113 0
-113 2 0
-113 45 0
-113 46 0
-113 22 0
-113 47 0
-113 16 0
-113 48 0
-113 4 0
-2 -45 -27 -46 -47 -17 -48 -4 114 0
-114 2 0
-114 45 0
-114 27 0
-114 46 0
-114 47 0
-114 17 0
-114 48 0
-114 4 0
-45 -2 -18 -47 -33 -49 -48 -4 115 0
-115 45 0
-115 2 0
-115 18 0
-115 47 0
-115 33 0
-115 49 0
-115 48 0
-115 4 0
-45 -2 -46 -47 -20 -38 -48 -4 116 0
-116 45 0
-116 2 0
-116 46 0
-116 47 0
-116 20 0
-116 38 0
-116 48 0
-116 4 0
-2 -45 -46 -47 -17 -14 -48 -6 117 0
-117 2 0
-117 45 0
-117 46 0
-117 47 0
-117 17 0
-117 14 0
-117 48 0
-117 6 0
-2 -45 -46 -47 -16 -48 -6 -23 118 0
-118 2 0
-118 45 0
-118 46 0
-118 47 0
-118 16 0
-118 48 0
-118 6 0
-118 23 0
-2 -45 -46 -47 -17 -28 -48 -6 119 0
-119 2 0
-119 45 0
-119 46 0
-119 47 0
-119 17 0
-119 28 0
-119 48 0
-119 6 0
-2 -45 -18 -47 -49 -48 -34 -6 120 0
-120 2 0
-120 45 0
-120 18 0
-120 47 0
-120 49 0
-120 48 0
-120 34 0
-120 6 0
-2 -45 -46 -47 -20 -48 -6 -39 121 0
-121 2 0
-121 45 0
-121 46 0
-121 47 0
-121 20 0
-121 48 0
-121 6 0
-121 39 0
-2 -46 -18 -8 -47 -14 -48 -50 122 0
-122 2 0
-122 46 0
-122 18 0
-122 8 0
-122 47 0
-122 14 0
-122 48 0
-122 50 0
-2 -46 -24 -8 -47 -16 -48 -50 123 0
-123 2 0
-123 46 0
-123 24 0
-123 8 0
-123 47 0
-123 16 0
-123 48 0
-123 50 0
-2 -46 -8 -47 -17 -48 -29 -50 124 0
-124 2 0
-124 46 0
-124 8 0
-124 47 0
-124 17 0
-124 48 0
-124 29 0
-124 50 0
-2 -35 -18 -8 -47 -49 -48 -50 125 0
-125 2 0
-125 35 0
-125 18 0
-125 8 0
-125 47 0
-125 49 0
-125 48 0
-125 50 0
-40 -2 -46 -8 -47 -20 -48 -50 126 0
-126 40 0
-126 2 0
-126 46 0
-126 8 0
-126 47 0
-126 20 0
-126 48 0
-126 50 0
-2 -45 -46 -10 -47 -20 -14 -48 127 0
-127 2 0
-127 45 0
-127 46 0
-127 10 0
-127 47 0
-127 20 0
-127 14 0
-127 48 0
-2 -45 -46 -25 -10 -47 -16 -48 128 0
-128 2 0
-128 45 0
-128 46 0
-128 25 0
-128 10 0
-128 47 0
-128 16 0
-128 48 0
-2 -45 -46 -10 -47 -30 -17 -48 129 0
-129 2 0
-129 45 0
-129 46 0
-129 10 0
-129 47 0
-129 30 0
-129 17 0
-129 48 0
-2 -36 -45 -18 -10 -47 -49 -48 130 0
-130 2 0
-130 36 0
-130 45 0
-130 18 0
-130 10 0
-130 47 0
-130 49 0
-130 48 0
-2 -45 -46 -41 -10 -47 -20 -48 131 0
-131 2 0
-131 45 0
-131 46 0
-131 41 0
-131 10 0
-131 47 0
-131 20 0
-131 48 0
-45 -46 -3 -47 -21 -14 -48 -5 132 0
-132 45 0
-132 46 0
-132 3 0
-132 47 0
-132 21 0
-132 14 0
-132 48 0
-132 5 0
-45 -46 -22 -3 -47 -21 -48 -5 133 0
-133 45 0
-133 46 0
-133 22 0
-133 3 0
-133 47 0
-133 21 0
-133 48 0
-133 5 0
-45 -46 -3 -47 -48 -5 -26 -23 134 0
-134 45 0
-134 46 0
-134 3 0
-134 47 0
-134 48 0
-134 5 0
-134 26 0
-134 23 0
-45 -3 -24 -47 -32 -49 -48 -5 135 0
-135 45 0
-135 3 0
-135 24 0
-135 47 0
-135 32 0
-135 49 0
-135 48 0
-135 5 0
-45 -46 -3 -37 -25 -47 -48 -5 136 0
-136 45 0
-136 46 0
-136 3 0
-136 37 0
-136 25 0
-136 47 0
-136 48 0
-136 5 0
-45 -46 -47 -16 -21 -48 -5 -4 137 0
-137 45 0
-137 46 0
-137 47 0
-137 16 0
-137 21 0
-137 48 0
-137 5 0
-137 4 0
-45 -46 -22 -47 -48 -5 -4 138 0
-138 45 0
-138 46 0
-138 22 0
-138 47 0
-138 48 0
-138 5 0
-138 4 0
-45 -27 -46 -47 -48 -5 -4 -23 139 0
-139 45 0
-139 27 0
-139 46 0
-139 47 0
-139 48 0
-139 5 0
-139 4 0
-139 23 0
-45 -24 -47 -33 -49 -48 -5 -4 140 0
-140 45 0
-140 24 0
-140 47 0
-140 33 0
-140 49 0
-140 48 0
-140 5 0
-140 4 0
-45 -46 -25 -47 -38 -48 -5 -4 141 0
-141 45 0
-141 46 0
-141 25 0
-141 47 0
-141 38 0
-141 48 0
-141 5 0
-141 4 0
-45 -46 -47 -17 -21 -48 -5 -6 142 0
-142 45 0
-142 46 0
-142 47 0
-142 17 0
-142 21 0
-142 48 0
-142 5 0
-142 6 0
-45 -46 -22 -47 -48 -5 -6 -23 143 0
-143 45 0
-143 46 0
-143 22 0
-143 47 0
-143 48 0
-143 5 0
-143 6 0
-143 23 0
-45 -46 -47 -28 -48 -5 -6 -23 144 0
-144 45 0
-144 46 0
-144 47 0
-144 28 0
-144 48 0
-144 5 0
-144 6 0
-144 23 0
-45 -24 -47 -49 -48 -5 -34 -6 145 0
-145 45 0
-145 24 0
-145 47 0
-145 49 0
-145 48 0
-145 5 0
-145 34 0
-145 6 0
-45 -46 -25 -47 -48 -5 -6 -39 146 0
-146 45 0
-146 46 0
-146 25 0
-146 47 0
-146 48 0
-146 5 0
-146 6 0
-146 39 0
-46 -18 -8 -47 -21 -48 -5 -50 147 0
-147 46 0
-147 18 0
-147 8 0
-147 47 0
-147 21 0
-147 48 0
-147 5 0
-147 50 0
-22 -46 -24 -8 -47 -48 -5 -50 148 0
-148 22 0
-148 46 0
-148 24 0
-148 8 0
-148 47 0
-148 48 0
-148 5 0
-148 50 0
-46 -8 -47 -48 -5 -29 -23 -50 149 0
-149 46 0
-149 8 0
-149 47 0
-149 48 0
-149 5 0
-149 29 0
-149 23 0
-149 50 0
-35 -24 -8 -47 -49 -48 -5 -50 150 0
-150 35 0
-150 24 0
-150 8 0
-150 47 0
-150 49 0
-150 48 0
-150 5 0
-150 50 0
-40 -46 -8 -25 -47 -48 -5 -50 151 0
-151 40 0
-151 46 0
-151 8 0
-151 25 0
-151 47 0
-151 48 0
-151 5 0
-151 50 0
-45 -46 -10 -47 -20 -21 -48 -5 152 0
-152 45 0
-152 46 0
-152 10 0
-152 47 0
-152 20 0
-152 21 0
-152 48 0
-152 5 0
-45 -46 -22 -25 -10 -47 -48 -5 153 0
-153 45 0
-153 46 0
-153 22 0
-153 25 0
-153 10 0
-153 47 0
-153 48 0
-153 5 0
-45 -46 -10 -47 -30 -48 -5 -23 154 0
-154 45 0
-154 46 0
-154 10 0
-154 47 0
-154 30 0
-154 48 0
-154 5 0
-154 23 0
-45 -36 -24 -10 -47 -49 -48 -5 155 0
-155 45 0
-155 36 0
-155 24 0
-155 10 0
-155 47 0
-155 49 0
-155 48 0
-155 5 0
-45 -46 -41 -25 -10 -47 -48 -5 156 0
-156 45 0
-156 46 0
-156 41 0
-156 25 0
-156 10 0
-156 47 0
-156 48 0
-156 5 0
-45 -46 -3 -7 -47 -14 -48 -26 157 0
-157 45 0
-157 46 0
-157 3 0
-157 7 0
-157 47 0
-157 14 0
-157 48 0
-157 26 0
-45 -27 -46 -3 -7 -47 -21 -48 158 0
-158 45 0
-158 27 0
-158 46 0
-158 3 0
-158 7 0
-158 47 0
-158 21 0
-158 48 0
-45 -46 -3 -7 -47 -28 -48 -26 159 0
-159 45 0
-159 46 0
-159 3 0
-159 7 0
-159 47 0
-159 28 0
-159 48 0
-159 26 0
-45 -3 -7 -47 -32 -49 -48 -29 160 0
-160 45 0
-160 3 0
-160 7 0
-160 47 0
-160 32 0
-160 49 0
-160 48 0
-160 29 0
-45 -46 -3 -37 -7 -47 -30 -48 161 0
-161 45 0
-161 46 0
-161 3 0
-161 37 0
-161 7 0
-161 47 0
-161 30 0
-161 48 0
-45 -46 -7 -47 -16 -48 -4 -26 162 0
-162 45 0
-162 46 0
-162 7 0
-162 47 0
-162 16 0
-162 48 0
-162 4 0
-162 26 0
-45 -27 -46 -22 -7 -47 -48 -4 163 0
-163 45 0
-163 27 0
-163 46 0
-163 22 0
-163 7 0
-163 47 0
-163 48 0
-163 4 0
-45 -27 -46 -7 -47 -28 -48 -4 164 0
-164 45 0
-164 27 0
-164 46 0
-164 7 0
-164 47 0
-164 28 0
-164 48 0
-164 4 0
-45 -7 -47 -33 -49 -48 -4 -29 165 0
-165 45 0
-165 7 0
-165 47 0
-165 33 0
-165 49 0
-165 48 0
-165 4 0
-165 29 0
-45 -46 -7 -47 -30 -38 -48 -4 166 0
-166 45 0
-166 46 0
-166 7 0
-166 47 0
-166 30 0
-166 38 0
-166 48 0
-166 4 0
-45 -46 -7 -47 -17 -48 -6 -26 167 0
-167 45 0
-167 46 0
-167 7 0
-167 47 0
-167 17 0
-167 48 0
-167 6 0
-167 26 0
-45 -27 -46 -7 -47 -48 -6 -23 168 0
-168 45 0
-168 27 0
-168 46 0
-168 7 0
-168 47 0
-168 48 0
-168 6 0
-168 23 0
-45 -46 -7 -47 -28 -48 -6 169 0
-169 45 0
-169 46 0
-169 7 0
-169 47 0
-169 28 0
-169 48 0
-169 6 0
-45 -7 -47 -49 -48 -34 -6 -29 170 0
-170 45 0
-170 7 0
-170 47 0
-170 49 0
-170 48 0
-170 34 0
-170 6 0
-170 29 0
-45 -46 -7 -47 -30 -48 -6 -39 171 0
-171 45 0
-171 46 0
-171 7 0
-171 47 0
-171 30 0
-171 48 0
-171 6 0
-171 39 0
-46 -18 -7 -8 -47 -48 -26 -50 172 0
-172 46 0
-172 18 0
-172 7 0
-172 8 0
-172 47 0
-172 48 0
-172 26 0
-172 50 0
-27 -46 -24 -8 -7 -47 -48 -50 173 0
-173 27 0
-173 46 0
-173 24 0
-173 8 0
-173 7 0
-173 47 0
-173 48 0
-173 50 0
-46 -7 -8 -47 -28 -48 -29 -50 174 0
-174 46 0
-174 7 0
-174 8 0
-174 47 0
-174 28 0
-174 48 0
-174 29 0
-174 50 0
-35 -8 -7 -47 -49 -48 -29 -50 175 0
-175 35 0
-175 8 0
-175 7 0
-175 47 0
-175 49 0
-175 48 0
-175 29 0
-175 50 0
-40 -46 -7 -8 -47 -30 -48 -50 176 0
-176 40 0
-176 46 0
-176 7 0
-176 8 0
-176 47 0
-176 30 0
-176 48 0
-176 50 0
-45 -46 -7 -10 -47 -20 -48 -26 177 0
-177 45 0
-177 46 0
-177 7 0
-177 10 0
-177 47 0
-177 20 0
-177 48 0
-177 26 0
-45 -27 -46 -7 -25 -10 -47 -48 178 0
-178 45 0
-178 27 0
-178 46 0
-178 7 0
-178 25 0
-178 10 0
-178 47 0
-178 48 0
-45 -46 -7 -10 -47 -30 -28 -48 179 0
-179 45 0
-179 46 0
-179 7 0
-179 10 0
-179 47 0
-179 30 0
-179 28 0
-179 48 0
-45 -36 -7 -10 -47 -49 -48 -29 180 0
-180 45 0
-180 36 0
-180 7 0
-180 10 0
-180 47 0
-180 49 0
-180 48 0
-180 29 0
-45 -46 -41 -7 -10 -47 -30 -48 181 0
-181 45 0
-181 46 0
-181 41 0
-181 7 0
-181 10 0
-181 47 0
-181 30 0
-181 48 0
-45 -46 -3 -47 -51 -32 -14 -9 182 0
-182 45 0
-182 46 0
-182 3 0
-182 47 0
-182 51 0
-182 32 0
-182 14 0
-182 9 0
-45 -46 -3 -47 -33 -51 -21 -9 183 0
-183 45 0
-183 46 0
-183 3 0
-183 47 0
-183 33 0
-183 51 0
-183 21 0
-183 9 0
-45 -46 -3 -47 -51 -34 -9 -26 184 0
-184 45 0
-184 46 0
-184 3 0
-184 47 0
-184 51 0
-184 34 0
-184 9 0
-184 26 0
-45 -35 -3 -47 -51 -32 -49 -9 185 0
-185 45 0
-185 35 0
-185 3 0
-185 47 0
-185 51 0
-185 32 0
-185 49 0
-185 9 0
-45 -36 -46 -3 -37 -47 -51 -9 186 0
-186 45 0
-186 36 0
-186 46 0
-186 3 0
-186 37 0
-186 47 0
-186 51 0
-186 9 0
-45 -46 -47 -16 -51 -32 -4 -9 187 0
-187 45 0
-187 46 0
-187 47 0
-187 16 0
-187 51 0
-187 32 0
-187 4 0
-187 9 0
-45 -22 -46 -47 -33 -51 -4 -9 188 0
-188 45 0
-188 22 0
-188 46 0
-188 47 0
-188 33 0
-188 51 0
-188 4 0
-188 9 0
-45 -27 -46 -47 -51 -4 -34 -9 189 0
-189 45 0
-189 27 0
-189 46 0
-189 47 0
-189 51 0
-189 4 0
-189 34 0
-189 9 0
-45 -35 -47 -33 -51 -4 -49 -9 190 0
-190 45 0
-190 35 0
-190 47 0
-190 33 0
-190 51 0
-190 4 0
-190 49 0
-190 9 0
-45 -36 -46 -47 -38 -51 -4 -9 191 0
-191 45 0
-191 36 0
-191 46 0
-191 47 0
-191 38 0
-191 51 0
-191 4 0
-191 9 0
-45 -46 -47 -17 -51 -32 -9 -6 192 0
-192 45 0
-192 46 0
-192 47 0
-192 17 0
-192 51 0
-192 32 0
-192 9 0
-192 6 0
-45 -46 -47 -33 -51 -9 -6 -23 193 0
-193 45 0
-193 46 0
-193 47 0
-193 33 0
-193 51 0
-193 9 0
-193 6 0
-193 23 0
-45 -46 -47 -51 -28 -9 -34 -6 194 0
-194 45 0
-194 46 0
-194 47 0
-194 51 0
-194 28 0
-194 9 0
-194 34 0
-194 6 0
-45 -35 -47 -51 -9 -49 -34 -6 195 0
-195 45 0
-195 35 0
-195 47 0
-195 51 0
-195 9 0
-195 49 0
-195 34 0
-195 6 0
-45 -36 -46 -47 -51 -9 -6 -39 196 0
-196 45 0
-196 36 0
-196 46 0
-196 47 0
-196 51 0
-196 9 0
-196 6 0
-196 39 0
-46 -18 -8 -47 -51 -32 -9 -50 197 0
-197 46 0
-197 18 0
-197 8 0
-197 47 0
-197 51 0
-197 32 0
-197 9 0
-197 50 0
-46 -24 -8 -47 -33 -51 -9 -50 198 0
-198 46 0
-198 24 0
-198 8 0
-198 47 0
-198 33 0
-198 51 0
-198 9 0
-198 50 0
-46 -8 -47 -51 -34 -9 -29 -50 199 0
-199 46 0
-199 8 0
-199 47 0
-199 51 0
-199 34 0
-199 9 0
-199 29 0
-199 50 0
-35 -8 -47 -51 -49 -9 -50 200 0
-200 35 0
-200 8 0
-200 47 0
-200 51 0
-200 49 0
-200 9 0
-200 50 0
-40 -36 -46 -8 -47 -51 -9 -50 201 0
-201 40 0
-201 36 0
-201 46 0
-201 8 0
-201 47 0
-201 51 0
-201 9 0
-201 50 0
-45 -46 -10 -47 -20 -51 -32 -9 202 0
-202 45 0
-202 46 0
-202 10 0
-202 47 0
-202 20 0
-202 51 0
-202 32 0
-202 9 0
-45 -46 -25 -10 -47 -33 -51 -9 203 0
-203 45 0
-203 46 0
-203 25 0
-203 10 0
-203 47 0
-203 33 0
-203 51 0
-203 9 0
-45 -46 -10 -47 -30 -51 -34 -9 204 0
-204 45 0
-204 46 0
-204 10 0
-204 47 0
-204 30 0
-204 51 0
-204 34 0
-204 9 0
-45 -36 -35 -10 -47 -51 -49 -9 205 0
-205 45 0
-205 36 0
-205 35 0
-205 10 0
-205 47 0
-205 51 0
-205 49 0
-205 9 0
-45 -36 -46 -41 -10 -47 -51 -9 206 0
-206 45 0
-206 36 0
-206 46 0
-206 41 0
-206 10 0
-206 47 0
-206 51 0
-206 9 0
-45 -46 -3 -37 -47 -14 -11 -48 207 0
-207 45 0
-207 46 0
-207 3 0
-207 37 0
-207 47 0
-207 14 0
-207 11 0
-207 48 0
-45 -46 -3 -47 -38 -21 -11 -48 208 0
-208 45 0
-208 46 0
-208 3 0
-208 47 0
-208 38 0
-208 21 0
-208 11 0
-208 48 0
-45 -46 -3 -47 -11 -48 -26 -39 209 0
-209 45 0
-209 46 0
-209 3 0
-209 47 0
-209 11 0
-209 48 0
-209 26 0
-209 39 0
-40 -45 -3 -47 -32 -49 -11 -48 210 0
-210 40 0
-210 45 0
-210 3 0
-210 47 0
-210 32 0
-210 49 0
-210 11 0
-210 48 0
-45 -46 -41 -3 -37 -47 -11 -48 211 0
-211 45 0
-211 46 0
-211 41 0
-211 3 0
-211 37 0
-211 47 0
-211 11 0
-211 48 0
-45 -46 -37 -47 -16 -11 -48 -4 212 0
-212 45 0
-212 46 0
-212 37 0
-212 47 0
-212 16 0
-212 11 0
-212 48 0
-212 4 0
-45 -46 -22 -47 -38 -48 -11 -4 213 0
-213 45 0
-213 46 0
-213 22 0
-213 47 0
-213 38 0
-213 48 0
-213 11 0
-213 4 0
-45 -27 -46 -47 -48 -11 -4 -39 214 0
-214 45 0
-214 27 0
-214 46 0
-214 47 0
-214 48 0
-214 11 0
-214 4 0
-214 39 0
-40 -45 -47 -33 -49 -48 -11 -4 215 0
-215 40 0
-215 45 0
-215 47 0
-215 33 0
-215 49 0
-215 48 0
-215 11 0
-215 4 0
-45 -46 -41 -47 -38 -11 -48 -4 216 0
-216 45 0
-216 46 0
-216 41 0
-216 47 0
-216 38 0
-216 11 0
-216 48 0
-216 4 0
-45 -46 -37 -47 -17 -48 -11 -6 217 0
-217 45 0
-217 46 0
-217 37 0
-217 47 0
-217 17 0
-217 48 0
-217 11 0
-217 6 0
-45 -46 -47 -38 -11 -48 -6 -23 218 0
-218 45 0
-218 46 0
-218 47 0
-218 38 0
-218 11 0
-218 48 0
-218 6 0
-218 23 0
-45 -46 -47 -28 -11 -48 -6 -39 219 0
-219 45 0
-219 46 0
-219 47 0
-219 28 0
-219 11 0
-219 48 0
-219 6 0
-219 39 0
-40 -45 -47 -49 -48 -11 -34 -6 220 0
-220 40 0
-220 45 0
-220 47 0
-220 49 0
-220 48 0
-220 11 0
-220 34 0
-220 6 0
-45 -46 -41 -47 -11 -48 -6 -39 221 0
-221 45 0
-221 46 0
-221 41 0
-221 47 0
-221 11 0
-221 48 0
-221 6 0
-221 39 0
-46 -18 -37 -8 -47 -11 -48 -50 222 0
-222 46 0
-222 18 0
-222 37 0
-222 8 0
-222 47 0
-222 11 0
-222 48 0
-222 50 0
-46 -24 -8 -47 -38 -48 -11 -50 223 0
-223 46 0
-223 24 0
-223 8 0
-223 47 0
-223 38 0
-223 48 0
-223 11 0
-223 50 0
-46 -8 -47 -48 -11 -29 -39 -50 224 0
-224 46 0
-224 8 0
-224 47 0
-224 48 0
-224 11 0
-224 29 0
-224 39 0
-224 50 0
-40 -35 -8 -47 -49 -11 -48 -50 225 0
-225 40 0
-225 35 0
-225 8 0
-225 47 0
-225 49 0
-225 11 0
-225 48 0
-225 50 0
-40 -46 -41 -8 -47 -11 -48 -50 226 0
-226 40 0
-226 46 0
-226 41 0
-226 8 0
-226 47 0
-226 11 0
-226 48 0
-226 50 0
-45 -46 -37 -10 -47 -20 -48 -11 227 0
-227 45 0
-227 46 0
-227 37 0
-227 10 0
-227 47 0
-227 20 0
-227 48 0
-227 11 0
-45 -46 -25 -10 -47 -38 -11 -48 228 0
-228 45 0
-228 46 0
-228 25 0
-228 10 0
-228 47 0
-228 38 0
-228 11 0
-228 48 0
-45 -46 -10 -47 -30 -11 -48 -39 229 0
-229 45 0
-229 46 0
-229 10 0
-229 47 0
-229 30 0
-229 11 0
-229 48 0
-229 39 0
-40 -45 -36 -10 -47 -49 -48 -11 230 0
-230 40 0
-230 45 0
-230 36 0
-230 10 0
-230 47 0
-230 49 0
-230 48 0
-230 11 0
-45 -46 -41 -10 -47 -11 -48 231 0
-231 45 0
-231 46 0
-231 41 0
-231 10 0
-231 47 0
-231 11 0
-231 48 0
52 53 54 55 56 57 58 59 60 61 62 63 64 65 66 67 68 69 70 71 72 73 74 75 76 77 78 79 80 81 82 83 84 85 86 87 88 89 90 91 92 93 94 95 96 97 98 99 100 101 102 103 104 105 106 107 108 109 110 111 112 113 114 115 116 117 118 119 120 121 122 123 124 125 126 127 128 129 130 131 132 133 134 135 136 137 138 139 140 141 142 143 144 145 146 147 148 149 150 151 152 153 154 155 156 157 158 159 160 161 162 163 164 165 166 167 168 169 170 171 172 173 174 175 176 177 178 179 180 181 182 183 184 185 186 187 188 189 190 191 192 193 194 195 196 197 198 199 200 201 202 203 204 205 206 207 208 209 210 211 212 213 214 215 216 217 218 219 220 221 222 223 224 225 226 227 228 229 230 231 0
c p auxilliary 52 53 54 55 56 57 58 59 60 61 62 63 64 65 66 67 68 69 70 71 72 73 74 75 76 77 78 79 80 81 82 83 84 85 86 87 88 89 90 91 92 93 94 95 96 97 98 99 100 101 102 103 104 105 106 107 108 109 110 111 112 113 114 115 116 117 118 119 120 121 122 123 124 125 126 127 128 129 130 131 132 133 134 135 136 137 138 139 140 141 142 143 144 145 146 147 148 149 150 151 152 153 154 155 156 157 158 159 160 161 162 163 164 165 166 167 168 169 170 171 172 173 174 175 176 177 178 179 180 181 182 183 184 185 186 187 188 189 190 191 192 193 194 195 196 197 198 199 200 201 202 203 204 205 206 207 208 209 210 211 212 213 214 215 216 217 218 219 220 221 222 223 224 225 226 227 228 229 230 231